Route #1: 38 11 65 66 59 14 19
Route #2: 5 47 36 69 71 60 70 20 37 15 57 13 54
Route #3: 63 23 56 43 41 42 64 22 61 21 74
Route #4: 58 10 31 25 55 18 50 24 49 16
Route #5: 45 29 48 28 62 1 73 33 2
Route #6: 17 40 3 44 32 9 39 72 12
Route #7: 34 46 27 52 8 35 53 7 26
Route #8: 67 4 30 68 6 51 75
Cost 794.7405140283134